Route #1: 1 17 44 14 30 26 13 1
Route #2: 1 28 20 38 24 33 29 9 23 40 5 1
Route #3: 1 39 42 32 22 10 19 1
Route #4: 1 25 18 15 3 11 37 12 21 8 34 16 1
Route #5: 1 31 6 2 43 27 1
Route #6: 1 35 7 4 41 36 45 1
cost: 743
